55485
44, 8, 38, 32, 41, 13, 5, 35, 24, 50, 20, 7, 37, 51, 40, 43, 3, 6, 28, 55, 26, 10, 29, 22, 16, 39, 46, 36, 15, 52, 11, 25, 31, 1, 27, 33, 42, 45, 2, 14, 9, 12, 4, 18, 30, 47, 54, 34, 53, 23, 21, 17, 48, 49, 19
